c FILE /home/rafael/Documents/HappySet/MIHS/inputs/happygen/output/graph_d_regular_k2_p0.4_v50_20241127_082547.txt
c SOURCE This is a d-regular graph formed for the happy graph colouring problem.
c DESCRIPTION It was generated using the problem generator of Rhyd Lewis
c
c GRAPH STATS
c Seed                             = 996376342
c Number of Nodes                  = 50
c Number of colours k              = 2
c Number of pre-assignments        = 20
c Degree of all vertices           = 6
c Density                          = 0.122449
c 
c The degrees of nodes 1 to 50, respectively, are as follows 
c [6, 6, 6, 6, 6, 6, 6, 6, 6, 6, 6, 6, 6, 6, 6, 6, 6, 6, 6, 6, 6, 6, 6, 6, 6, 6, 
c  6, 6, 6, 6, 6, 6, 6, 6, 6, 6, 6, 6, 6, 6, 6, 6, 6, 6, 6, 6, 6, 6, 6, 6] 
c  
p edge 50 150 2
e 1 2
e 1 3
e 1 7
e 1 11
e 1 16
e 1 45
e 2 9
e 2 19
e 2 23
e 2 28
e 2 37
e 3 6
e 3 8
e 3 21
e 3 26
e 3 28
e 4 10
e 4 13
e 4 22
e 4 24
e 4 25
e 4 49
e 5 7
e 5 19
e 5 22
e 5 23
e 5 45
e 5 48
e 6 9
e 6 10
e 6 20
e 6 41
e 6 44
e 7 11
e 7 25
e 7 30
e 7 48
e 8 24
e 8 25
e 8 31
e 8 33
e 8 34
e 9 14
e 9 21
e 9 28
e 9 48
e 10 28
e 10 30
e 10 32
e 10 40
e 11 13
e 11 16
e 11 34
e 11 44
e 12 27
e 12 29
e 12 36
e 12 37
e 12 38
e 12 46
e 13 17
e 13 28
e 13 36
e 13 39
e 14 19
e 14 34
e 14 35
e 14 37
e 14 47
e 15 30
e 15 35
e 15 39
e 15 41
e 15 42
e 15 47
e 16 33
e 16 42
e 16 46
e 16 47
e 17 19
e 17 31
e 17 32
e 17 36
e 17 50
e 18 20
e 18 22
e 18 31
e 18 32
e 18 41
e 18 50
e 19 23
e 19 38
e 20 21
e 20 26
e 20 33
e 20 40
e 21 29
e 21 34
e 21 44
e 22 44
e 22 47
e 22 48
e 23 25
e 23 27
e 23 40
e 24 30
e 24 39
e 24 42
e 24 43
e 25 32
e 25 41
e 26 30
e 26 31
e 26 36
e 26 39
e 27 35
e 27 36
e 27 44
e 27 50
e 28 33
e 29 30
e 29 35
e 29 42
e 29 43
e 31 32
e 31 50
e 32 47
e 33 37
e 33 49
e 34 37
e 34 49
e 35 37
e 35 46
e 36 45
e 38 39
e 38 40
e 38 45
e 38 48
e 39 50
e 40 46
e 40 48
e 41 42
e 41 49
e 42 43
e 43 47
e 43 49
e 43 50
e 44 45
e 45 46
e 46 49
n 2 1
n 11 1
n 12 1
n 15 2
n 16 1
n 17 2
n 18 1
n 21 1
n 24 2
n 25 2
n 26 2
n 27 1
n 28 1
n 29 1
n 37 1
n 39 2
n 44 1
n 46 1
n 48 2
n 49 1
